
Log started (V12.10.0.0) Fri Apr  2 11:13:54 2021

Warning, line 596: Name 's214' does not exist.
Warning, line 599: Name 's262' does not exist.
Warning, line 600: Name 's261' does not exist.

Problem 'asset.lp' read.
Read time = 0.00 sec. (0.04 ticks)
New value for default parallel thread count: 1
New value for time limit in seconds: 400
Version identifier: 12.10.0.0 | 2019-11-26 | 843d4de
CPXPARAM_Threads                                 1
CPXPARAM_TimeLimit                               400
Found incumbent of value -0.875798 after 0.00 sec. (0.02 ticks)
Tried aggregator 3 times.
MIP Presolve eliminated 54 rows and 21 columns.
MIP Presolve modified 377 coefficients.
Aggregator did 131 substitutions.
Reduced MIP has 253 rows, 262 columns, and 941 nonzeros.
Reduced MIP has 202 binaries, 41 generals, 0 SOSs, and 0 indicators.
Presolve time = 0.00 sec. (1.86 ticks)
Probing fixed 14 vars, tightened 9 bounds.
Probing time = 0.00 sec. (0.46 ticks)
Cover probing fixed 0 vars, tightened 13 bounds.
Tried aggregator 1 time.
MIP Presolve eliminated 42 rows and 39 columns.
MIP Presolve modified 46 coefficients.
Reduced MIP has 211 rows, 220 columns, and 744 nonzeros.
Reduced MIP has 172 binaries, 29 generals, 0 SOSs, and 0 indicators.
Presolve time = 0.00 sec. (0.65 ticks)
Probing time = 0.00 sec. (0.34 ticks)
Tried aggregator 1 time.
Detecting symmetries...
MIP Presolve modified 6 coefficients.
Reduced MIP has 211 rows, 220 columns, and 744 nonzeros.
Reduced MIP has 172 binaries, 29 generals, 0 SOSs, and 0 indicators.
Presolve time = 0.00 sec. (0.49 ticks)
Probing time = 0.00 sec. (0.34 ticks)
Clique table members: 601.
MIP emphasis: balance optimality and feasibility.
MIP search method: dynamic search.
Parallel mode: none, using 1 thread.
Root relaxation solution time = 0.00 sec. (1.36 ticks)

        Nodes                                         Cuts/
   Node  Left     Objective  IInf  Best Integer    Best Bound    ItCnt     Gap

*     0+    0                           -0.8758       63.5142              --- 
      0     0       55.8323    86       -0.8758       55.8323      139     --- 
      0     0       54.9330    86       -0.8758     Cuts: 115      204     --- 
*     0+    0                           52.8636       54.9330             3.91%
      0     0       54.9294    86       52.8636      Cuts: 59      246    3.91%
      0     0       54.9286    86       52.8636      Cuts: 31      270    3.91%
      0     0       54.9283    86       52.8636       Cuts: 9      281    3.91%
*     0+    0                           54.9062       54.9283             0.04%
*     0+    0                           54.9081       54.9283             0.04%
      0     0        cutoff             54.9081       54.9283      281    0.04%
Detecting symmetries...

Repeating presolve.
Tried aggregator 3 times.
MIP Presolve eliminated 96 rows and 111 columns.
MIP Presolve modified 38 coefficients.
Aggregator did 10 substitutions.
Reduced MIP has 105 rows, 98 columns, and 292 nonzeros.
Reduced MIP has 66 binaries, 20 generals, 0 SOSs, and 0 indicators.
Presolve time = 0.00 sec. (0.51 ticks)
Probing fixed 1 vars, tightened 2 bounds.
Probing changed sense of 2 constraints.
Probing time = 0.00 sec. (0.09 ticks)
Cover probing fixed 1 vars, tightened 13 bounds.
Tried aggregator 3 times.
MIP Presolve eliminated 17 rows and 7 columns.
MIP Presolve modified 71 coefficients.
Aggregator did 3 substitutions.
Reduced MIP has 85 rows, 88 columns, and 246 nonzeros.
Reduced MIP has 59 binaries, 19 generals, 0 SOSs, and 0 indicators.
Presolve time = 0.00 sec. (0.27 ticks)
Probing fixed 6 vars, tightened 3 bounds.
Probing time = 0.00 sec. (0.07 ticks)
Cover probing fixed 0 vars, tightened 2 bounds.
Tried aggregator 2 times.
MIP Presolve eliminated 12 rows and 14 columns.
MIP Presolve modified 16 coefficients.
Aggregator did 4 substitutions.
Reduced MIP has 69 rows, 70 columns, and 198 nonzeros.
Reduced MIP has 46 binaries, 15 generals, 0 SOSs, and 0 indicators.
Presolve time = 0.00 sec. (0.32 ticks)
Probing fixed 1 vars, tightened 0 bounds.
Probing time = 0.00 sec. (0.05 ticks)
Cover probing fixed 0 vars, tightened 2 bounds.
Tried aggregator 1 time.
Detecting symmetries...
MIP Presolve eliminated 3 rows and 2 columns.
MIP Presolve modified 7 coefficients.
Reduced MIP has 66 rows, 68 columns, and 188 nonzeros.
Reduced MIP has 44 binaries, 15 generals, 0 SOSs, and 0 indicators.
Presolve time = 0.00 sec. (0.18 ticks)
Represolve time = 0.01 sec. (2.59 ticks)
Probing time = 0.00 sec. (0.04 ticks)
Clique table members: 29.
MIP emphasis: balance optimality and feasibility.
MIP search method: dynamic search.
Parallel mode: none, using 1 thread.
Root relaxation solution time = 0.00 sec. (0.47 ticks)

        Nodes                                         Cuts/
   Node  Left     Objective  IInf  Best Integer    Best Bound    ItCnt     Gap

*     0+    0                           54.9081       54.9283             0.04%
      0     0       54.9184    27       54.9081       54.9184      339    0.02%
*     0+    0                           54.9105       54.9184             0.01%
      0     0       54.9171    27       54.9105      Cuts: 25      360    0.01%
*     0+    0                           54.9113       54.9171             0.01%
      0     0       54.9158    27       54.9113      Cuts: 35      385    0.01%

Clique cuts applied:  2
Implied bound cuts applied:  4
Flow cuts applied:  1
Mixed integer rounding cuts applied:  8
Zero-half cuts applied:  1
Lift and project cuts applied:  7
Gomory fractional cuts applied:  3

Root node processing (before b&c):
  Real time             =    0.05 sec. (36.74 ticks)
Sequential b&c:
  Real time             =    0.00 sec. (0.00 ticks)
                          ------------
Total (root+branch&cut) =    0.05 sec. (36.74 ticks)

Solution pool: 6 solutions saved.

MIP - Integer optimal, tolerance (0.0001/1e-06):  Objective =  5.4911334589e+01
Current MIP best bound =  5.4915821749e+01 (gap = 0.00448716, 0.01%)
Solution time =    0.05 sec.  Iterations = 385  Nodes = 0 (1)
Deterministic time = 36.74 ticks  (686.58 ticks/sec)


Incumbent solution
Variable Name           Solution Value
F                            74.000000
f1                            0.928665
f2                           18.160000
y11                           1.000000
y71                           1.000000
y83                           1.000000
y153                          1.000000
y194                          1.000000
y200                          1.000000
y259                          1.000000
y51                           1.000000
y244                          1.000000
y84                           1.000000
y182                          1.000000
y57                           1.000000
s11                           6.271383
s19                           6.000000
s69                           6.000000
s71                           6.612152
s83                           6.106962
s152                          6.000000
s153                          6.932704
s154                          6.000000
s159                          6.000000
s194                          6.486988
s200                          6.702006
s259                          6.290326
s51                           6.546526
s48                           6.140000
s244                          6.825255
s163                          6.420000
s84                           7.240824
s182                          7.374657
s57                           7.625122
x135x153x1                    1.000000
x186x11x1                     1.000000
x167x71x1                     1.000000
x181x51x1                     1.000000
x235x71x1                     1.000000
x235x51x1                     1.000000
x113x153x1                    1.000000
x135x84x2                     1.000000
x53x84x2                      1.000000
x53x182x2                     1.000000
x186x83x2                     1.000000
x35x259x2                     2.000000
x167x194x2                    1.000000
x27x200x2                     2.000000
x100x244x3                    2.000000
x181x11x3                     1.000000
x113x194x3                    1.000000
x243x83x3                     1.000000
x11x0x1                       1.000000
x11x0x3                       1.000000
x71x0x1                       2.000000
x83x182x2                     1.000000
x83x0x3                       1.000000
x153x0x1                      2.000000
x194x0x2                      1.000000
x194x0x3                      1.000000
x200x0x2                      2.000000
x259x57x2                     2.000000
x51x0x1                       2.000000
x244x0x3                      2.000000
x84x0x2                       2.000000
x182x0x2                      2.000000
x57x0x2                       2.000000
s135                          5.638403
z135z153z1                    1.000000
z135z84z2                     1.000000
s53                           5.866703
z53z84z2                      1.000000
z53z182z2                     1.000000
s100                          5.324860
z100z244z3                    1.000000
s186                          4.703370
z186z11z1                     1.000000
z186z83z2                     1.000000
z186z163z1                    1.000000
z186z84z2                     1.000000
z186z182z2                    1.000000
z186z57z2                     1.000000
s35                           4.858010
z35z200z2                     1.000000
z35z259z2                     1.000000
z35z84z2                      1.000000
z35z182z2                     1.000000
z35z57z2                      1.000000
s167                          4.784980
z167z71z1                     1.000000
z167z194z2                    1.000000
s181                          4.883020
z181z11z3                     1.000000
z181z51z1                     1.000000
s27                           4.917670
z27z200z2                     1.000000
z27z182z2                     1.000000
s235                          5.112110
z235z71z1                     1.000000
z235z153z1                    1.000000
z235z51z1                     1.000000
s113                          4.994340
z113z153z1                    1.000000
z113z194z3                    1.000000
s243                          3.708300
z243z83z3                     1.000000
z243z244z3                    1.000000
z83z182z2                     1.000000
z259z57z2                     1.000000
All other variables in the range 1-417 are 0.
